&CONTROL
 calculation = 'vc-relax',
 prefix = 'C',
 /
&SYSTEM
 ibrav = 0,
 nat = 4,
 ntyp = 1,
 ecutwfc = 45,
 ecutrho = 360,
 occupations = 'smearing',
 degauss = 0.01,
 input_dft = 'vdw-df2-b86r',
 nosym = .true.
 /
&ELECTRONS
 /
&IONS
 /
&CELL
 /
CELL_PARAMETERS angstrom
  2.467291   0.000000   0.000000
 -1.233646   2.136737   0.000000
  0.000000   0.000000   7.803073
ATOMIC_SPECIES
C 12.011 C.pbe-n-kjpaw_psl.1.0.0.UPF
ATOMIC_POSITIONS angstrom
C    0.000000   0.000000   1.950768 1 1 1
C    0.000000   0.000000   5.852305 1 1 1
C   -0.000000   1.424491   1.950768 1 1 1
C    1.233646   0.712246   5.852305 1 1 1
K_POINTS automatic
12 12 4 0 0 0

