&CONTROL
 calculation = 'vc-relax',
 prefix = 'Li',
 /
&SYSTEM
 ibrav = 0,
 nat = 2,
 ntyp = 1,
 ecutwfc = 45,
 ecutrho = 360,
 occupations = 'smearing',
 degauss = 0.01,
 input_dft = 'vdw-df2-b86r',
 /
&ELECTRONS
 /
&IONS
 /
&CELL
 /
CELL_PARAMETERS angstrom
  3.439312   0.000000   0.000000
  0.000000   3.439312   0.000000
  0.000000   0.000000   3.439312
ATOMIC_SPECIES
Li 6.94 li_pbe_v1.4.uspp.F.UPF
ATOMIC_POSITIONS angstrom
Li   0.000000   0.000000   0.000000 1 1 1
Li   1.719656   1.719656   1.719656 1 1 1
K_POINTS automatic
9 9 9 0 0 0

