&CONTROL
 calculation = 'vc-relax',
 prefix = 'LiC12',
 /
&SYSTEM
 ibrav = 0,
 nat = 13,
 ntyp = 2,
 ecutwfc = 45,
 ecutrho = 360,
 occupations = 'smearing',
 degauss = 0.01,
 input_dft = 'vdw-df2-b86r',
 /
&ELECTRONS
 /
&IONS
 /
&CELL
 /
CELL_PARAMETERS angstrom
  4.279136   0.000000   0.000000
 -2.139568   3.705841   0.000000
  0.000000   0.000000   7.026965
ATOMIC_SPECIES
Li 6.94 li_pbe_v1.4.uspp.F.UPF
C 12.011 C.pbe-n-kjpaw_psl.1.0.0.UPF
ATOMIC_POSITIONS angstrom
Li   0.000000   0.000000   0.000000 1 1 1
C    1.426706   2.471127   5.168542 1 1 1
C    1.425725   0.000000   5.168542 1 1 1
C    3.566274   1.234714   5.168542 1 1 1
C    0.712862   1.234714   5.168542 1 1 1
C    2.853411   0.000000   5.168542 1 1 1
C   -1.426706   2.471127   5.168542 1 1 1
C    0.712862   1.234714   1.858424 1 1 1
C    2.853411   0.000000   1.858424 1 1 1
C   -1.426706   2.471127   1.858424 1 1 1
C    1.426706   2.471127   1.858424 1 1 1
C    1.425725   0.000000   1.858424 1 1 1
C    3.566274   1.234714   1.858424 1 1 1
K_POINTS automatic
7 7 5 0 0 0

